(set-info :Origin "This instance was generated by: BanditFuzz-- an RL fuzzer for SMT solvers" )
(set-info :Author "Joe Scott, Fed Mora, Vijay Ganesh" )
(set-info :Contact "Joe Scott, joseph.scott@uwaterloo.ca")
(set-logic QF_BV)
(declare-const bool_0 Bool)
(declare-const bool_1 Bool)
(declare-const bool_2 Bool)
(declare-const bool_3 Bool)
(declare-const bool_4 Bool)
(declare-const bv_0 (_ BitVec 32))
(declare-const bv_1 (_ BitVec 32))
(declare-const bv_2 (_ BitVec 32))
(declare-const bv_3 (_ BitVec 32))
(declare-const bv_4 (_ BitVec 32))
(assert (bvult (bvsub (bvxnor #x71718ac3  #x9c2a8c01 ) (bvadd #x1e4e64e3  bv_0)) (bvxor (bvadd #xfbde8b56  #xd364a38e ) (bvnand #xa5480cb3  bv_4))))
(assert (bvule (bvurem (bvor bv_2 #xce86f2e2 ) (bvsub #x53ece9a3  bv_4)) (bvmul (bvsrem #x9dd04cd3  bv_0) (bvsdiv bv_3 bv_0))))
(assert (bvsle (bvudiv (bvxnor #x13e9ac68  #xaa4ee254 ) (bvlshr bv_0 bv_2)) (bvudiv (bvshl bv_0 bv_0) (bvand #x4992f3f2  #x4a492c1e ))))
(assert (bvugt (bvor (bvadd #x26565105  #x1b2ee774 ) (bvudiv #xebed67a1  #x45c81e03 )) (bvlshr (bvsdiv #x56513b21  bv_2) (bvsdiv bv_3 #x2622ecc5 ))))
(assert (bvugt (bvxnor (bvxnor #x9921bcae  #x7aebe46f ) (bvxnor bv_1 #xc5074c75 )) (bvsrem (bvnor #x97ac8f79  bv_4) (bvashr bv_0 #x3b2c75b6 ))))
(check-sat)
(exit)
